This is Ipopt version 3.10.1, running with linear solver mumps.

Number of nonzeros in equality constraint Jacobian...:      236
Number of nonzeros in inequality constraint Jacobian.:        0
Number of nonzeros in Lagrangian Hessian.............:     5892

Total number of variables............................:      120
                     variables with only lower bounds:        0
                variables with lower and upper bounds:      120
                     variables with only upper bounds:        0
Total number of equality constraints.................:       59
Total number of inequality constraints...............:        0
        inequality constraints with only lower bounds:        0
   inequality constraints with lower and upper bounds:        0
        inequality constraints with only upper bounds:        0

iter    objective    inf_pr   inf_du lg(mu)  ||d||  lg(rg) alpha_du alpha_pr  ls
   0 -4.2465242e-03 1.00e-02 1.97e-03  -1.0 0.00e+00    -  0.00e+00 0.00e+00   0
   1 -4.4930746e-03 3.78e-10 2.46e-03  -1.7 2.46e-02    -  9.80e-01 1.00e+00h  1
   2 -4.3263341e-03 2.22e-10 2.30e-05  -2.5 3.21e-02    -  1.00e+00 1.00e+00f  1
   3 -5.8477029e-03 8.69e-12 1.06e-03  -3.8 5.25e-02    -  8.68e-01 1.00e+00f  1
   4 -2.1403245e-02 8.38e-12 1.36e-02  -5.7 1.49e+00  -2.0 1.75e-01 1.02e-01f  1
   5 -2.6920933e-02 7.74e-12 1.32e-02  -5.7 4.45e-02  -0.7 9.15e-01 4.63e-01f  1
   6 -3.2055189e-02 5.38e-12 1.15e-02  -5.7 1.88e-02  -0.2 1.00e+00 8.43e-01f  1
   7 -3.9361317e-02 7.65e-12 3.21e-02  -5.7 1.53e-01  -0.7 1.00e+00 1.40e-01f  1
   8 -4.7135154e-02 7.80e-12 1.74e-02  -5.7 3.73e-02  -0.3 1.00e+00 5.67e-01f  1
   9 -5.5252140e-02 1.12e-11 1.25e-01  -5.7 7.25e-01  -0.8 7.51e-01 3.63e-02f  1
iter    objective    inf_pr   inf_du lg(mu)  ||d||  lg(rg) alpha_du alpha_pr  ls
  10 -6.6061897e-02 1.26e-11 2.43e-02  -5.7 7.71e-02  -0.3 1.00e+00 4.18e-01f  1
  11 -7.1277568e-02 1.50e-11 1.72e-01  -5.7 1.25e+00  -0.8 4.42e-01 1.17e-02f  1
  12 -7.9288684e-02 1.49e-11 3.36e-02  -5.7 7.02e-02  -0.4 1.00e+00 2.84e-01f  1
  13 -8.7494399e-02 1.83e-11 8.96e-02  -5.7 8.38e-01  -0.9 2.82e-01 2.77e-02f  1
  14 -1.0144491e-01 1.78e-11 4.26e-02  -5.7 8.83e-02  -0.4 1.00e+00 3.85e-01f  1
  15 -1.1062822e-01 1.17e-11 2.82e-02  -5.7 3.09e-02  -0.0 1.00e+00 6.32e-01f  1
  16 -1.1501209e-01 1.28e-11 6.96e-02  -5.7 1.44e-01  -0.5 1.00e+00 6.60e-02f  1
  17 -1.2249042e-01 1.13e-11 3.10e-02  -5.7 3.85e-02  -0.1 1.00e+00 4.48e-01f  1
  18 -1.2520301e-01 1.20e-11 7.74e-02  -5.7 1.80e-01  -0.6 1.00e+00 3.65e-02f  1
  19 -1.3481848e-01 9.64e-12 3.48e-02  -5.7 5.16e-02  -0.1 1.00e+00 5.12e-01f  1
iter    objective    inf_pr   inf_du lg(mu)  ||d||  lg(rg) alpha_du alpha_pr  ls
  20 -1.3862392e-01 1.05e-11 8.11e-02  -5.7 1.93e-01  -0.6 7.87e-01 6.03e-02f  1
  21 -1.4066364e-01 9.29e-12 4.79e-02  -5.7 3.84e-02  -0.2 1.00e+00 1.42e-01f  1
  22 -1.4718304e-01 9.39e-12 6.24e-02  -5.7 1.38e-01  -0.7 6.52e-01 1.48e-01f  1
  23 -1.5558217e-01 1.20e-11 2.42e-02  -5.7 4.00e-02  -0.2 1.00e+00 6.79e-01f  1
  24 -1.5928583e-01 1.20e-11 2.52e-02  -5.7 2.72e-01  -0.7 1.31e-01 4.41e-02f  1
  25 -1.6622724e-01 8.75e-12 3.15e-02  -5.7 4.85e-02  -0.3 9.12e-01 4.61e-01f  1
  26 -1.6977282e-01 8.46e-12 9.46e-02  -5.7 6.10e-01  -0.8 3.23e-01 2.27e-02f  1
  27 -1.7768573e-01 7.15e-12 5.40e-02  -5.7 6.39e-02  -0.3 4.61e-01 3.62e-01f  1
  28 -1.8090769e-01 8.48e-12 1.14e-01  -5.7 7.35e+00  -0.8 1.78e-02 1.60e-03f  1
  29 -1.8089202e-01 8.47e-12 1.06e-01  -5.7 6.42e+00  -0.4 6.34e-03 7.59e-05f  8
iter    objective    inf_pr   inf_du lg(mu)  ||d||  lg(rg) alpha_du alpha_pr  ls
  30 -1.8693982e-01 6.67e-12 2.55e-02  -5.7 2.48e-02   0.0 1.00e+00 6.09e-01f  1
  31 -1.9457063e-01 9.31e-12 2.75e-02  -5.7 1.05e-01  -0.4 3.16e-01 1.83e-01f  1
  32 -1.9831160e-01 9.66e-12 5.06e-02  -5.7 2.48e-02  -0.0 1.00e+00 3.59e-01f  1
  33 -2.0798520e-01 1.45e-11 3.29e-02  -5.7 8.38e-02  -0.5 3.43e-01 3.34e-01f  1
  34 -2.0951273e-01 1.36e-11 2.70e-02  -5.7 2.85e-02  -0.1 1.92e-01 1.78e-01f  1
  35 -2.1657863e-01 1.22e-11 5.93e-02  -5.7 1.21e-01  -0.5 1.00e+00 1.74e-01f  1
  36 -2.1700734e-01 1.21e-11 6.87e-02  -5.7 3.63e-02  -0.1 1.00e+00 4.30e-02f  1
  37 -2.3958221e-01 1.45e-11 3.90e-02  -5.7 1.24e-01  -0.6 1.00e+00 6.09e-01f  1
  38 -2.4673131e-01 1.29e-11 3.01e-02  -5.7 4.76e-02  -0.2 1.00e+00 4.38e-01f  1
  39 -2.4724660e-01 1.30e-11 1.78e-01  -5.7 1.86e-01  -0.6 1.00e+00 8.89e-03f  1
iter    objective    inf_pr   inf_du lg(mu)  ||d||  lg(rg) alpha_du alpha_pr  ls
  40 -2.5238559e-01 1.32e-11 7.01e-02  -5.7 5.16e-02  -0.2 1.00e+00 3.26e-01f  1
  41 -2.5494803e-01 1.38e-11 9.61e-02  -5.7 1.44e-01  -0.7 7.53e-01 6.20e-02f  1
  42 -2.5537357e-01 1.38e-11 1.06e-01  -5.7 4.01e-02  -0.3 1.00e+00 3.57e-02f  1
  43 -2.7400416e-01 1.86e-11 5.61e-02  -5.7 1.47e-01  -0.7 4.46e-01 4.49e-01f  1
  44 -2.7757084e-01 1.58e-11 7.23e-02  -5.7 4.51e-02  -0.3 1.00e+00 5.06e-01f  1
  45 -2.8219230e-01 1.23e-11 6.66e-02  -5.7 6.09e-02  -0.8 1.00e+00 4.67e-01f  1
  46 -2.9444060e-01 1.55e-11 7.75e-02  -5.7 2.70e-01  -1.3 7.33e-01 2.53e-01f  1
  47 -2.9551096e-01 1.86e-11 9.62e-02  -5.7 1.16e-01  -0.8 2.84e-02 2.61e-01f  1
  48 -3.0122360e-01 1.72e-11 1.54e-01  -5.7 3.66e-01  -1.3 1.00e+00 1.23e-01f  1
  49 -3.0198750e-01 2.45e-11 1.49e-01  -5.7 9.64e-02  -0.9 1.71e-02 5.26e-02f  1
iter    objective    inf_pr   inf_du lg(mu)  ||d||  lg(rg) alpha_du alpha_pr  ls
  50 -3.3276763e-01 5.18e-11 7.13e-02  -5.7 5.42e-01  -1.4 1.17e-01 4.11e-01f  1
  51 -3.3845315e-01 4.30e-11 1.01e-01  -5.7 2.10e-01  -0.9 1.00e+00 1.50e-01f  1
  52 -3.6559046e-01 3.37e-11 6.78e-02  -5.7 3.93e-01  -1.4 2.05e-01 3.72e-01f  1
  53 -3.6557868e-01 3.37e-11 1.29e-01  -5.7 7.31e-02  -1.0 4.29e-01 1.25e-03f  9
  54 -3.6568424e-01 3.35e-11 1.27e-01  -5.7 2.53e-01  -1.5 3.96e-02 6.63e-03f  1
  55 -3.6863953e-01 2.84e-11 1.03e-01  -5.7 2.14e-01  -1.0 2.55e-01 2.07e-01f  1
  56 -3.6914492e-01 2.76e-11 7.15e-02  -5.7 3.36e-02  -0.6 6.33e-01 1.20e-01f  1
  57 -3.8436119e-01 3.87e-11 6.99e-02  -5.7 9.31e+00  -1.1 1.16e-02 1.12e-02f  1
  58 -3.9145062e-01 3.27e-11 6.04e-02  -5.7 1.39e-01  -0.7 6.36e-01 2.01e-01f  1
  59 -4.0411956e-01 1.58e-11 2.13e-02  -5.7 3.83e-02  -0.2 1.00e+00 9.95e-01f  1
iter    objective    inf_pr   inf_du lg(mu)  ||d||  lg(rg) alpha_du alpha_pr  ls
  60 -4.6415242e-01 3.55e-11 5.00e-02  -5.7 4.35e-01  -0.7 2.52e-01 3.00e-01f  1
  61 -5.2540794e-01 4.60e-11 8.87e-02  -5.7 1.68e-01  -0.3 9.00e-01 4.92e-01f  1
  62 -5.9626888e-01 3.31e-11 9.76e-02  -5.7 6.88e-02   0.1 1.00e+00 1.00e+00f  1
  63 -6.1613595e-01 4.11e-11 8.63e-01  -5.7 2.38e+01  -0.3 2.10e-02 7.16e-04f  1
  64 -6.4090079e-01 7.26e-11 6.74e-01  -5.7 1.05e-01   0.1 2.53e-01 3.77e-01f  1
  65 -6.5993195e-01 8.26e-11 5.01e-01  -5.7 6.78e-01  -0.4 3.54e-01 4.08e-02f  1
  66 -7.5405140e-01 1.73e-10 2.25e-01  -5.7 1.47e-01   0.0 5.38e-01 8.06e-01f  1
  67 -7.9078972e-01 1.94e-10 1.31e+00  -5.7 1.04e+01  -0.5 5.50e-02 3.77e-03f  1
  68 -8.4366703e-01 2.62e-10 1.39e+00  -5.7 1.38e+00  -0.9 2.98e-01 5.44e-02f  1
  69 -9.9969159e-01 2.10e-10 9.96e-01  -5.7 4.52e-01  -0.5 1.00e+00 4.06e-01f  1
iter    objective    inf_pr   inf_du lg(mu)  ||d||  lg(rg) alpha_du alpha_pr  ls
  70 -9.9967684e-01 2.10e-10 9.86e-01  -5.7 1.52e-02    -  8.49e-03 9.77e-04f 11
  71 -9.9969377e-01 2.03e-10 3.20e-01  -5.7 7.39e-04    -  1.00e+00 2.11e-02h  1
  72 -9.9977896e-01 1.68e-10 1.35e-01  -5.7 1.44e-05    -  7.70e-01 1.00e+00f  1
  73 -9.9977907e-01 1.10e-10 1.40e-10  -5.7 1.84e-05    -  1.00e+00 1.00e+00h  1
  74 -1.0000002e+00 4.76e-14 1.29e-07  -8.6 3.03e-05    -  1.00e+00 1.00e+00f  1
  75 -1.0000001e+00 3.66e-11 2.43e-01  -8.6 1.43e-08    -  7.59e-01 1.00e+00f  1
  76 -1.0000001e+00 2.07e-11 2.19e-15  -8.6 7.17e-09    -  1.00e+00 1.00e+00h  1

Number of Iterations....: 76

                                   (scaled)                 (unscaled)
Objective...............:  -1.0000001249867578e+00   -1.0000001249867578e+00
Dual infeasibility......:   2.1868503171209862e-15    2.1868503171209862e-15
Constraint violation....:   2.0651924614867312e-11    2.0651924614867312e-11
Complementarity.........:   4.5936227163119315e-09    4.5936227163119315e-09
Overall NLP error.......:   4.5936227163119315e-09    4.5936227163119315e-09


Number of objective function evaluations             = 105
Number of objective gradient evaluations             = 77
Number of equality constraint evaluations            = 105
Number of inequality constraint evaluations          = 0
Number of equality constraint Jacobian evaluations   = 1
Number of inequality constraint Jacobian evaluations = 0
Number of Lagrangian Hessian evaluations             = 76
Total CPU secs in IPOPT (w/o function evaluations)   =      0.300
Total CPU secs in NLP function evaluations           =      5.330

EXIT: Optimal Solution Found.
